c Generated map
c Size: 9 * 9, weights in range: 1 to 10, walls: True, with ratio 0.05
c dim 3 of 8
c
p sp 81 129
c graph contains 81 nodes and 129 arcs
c
a 1 10 10
a 10 1 10
a 1 2 2
a 2 1 2
a 2 11 2
a 11 2 2
a 4 5 9
a 5 4 9
a 5 14 10
a 14 5 10
a 5 6 2
a 6 5 2
a 6 15 10
a 15 6 10
a 6 7 4
a 7 6 4
a 7 16 1
a 16 7 1
a 7 8 10
a 8 7 10
a 8 17 3
a 17 8 3
a 8 9 1
a 9 8 1
a 9 18 7
a 18 9 7
a 10 19 3
a 19 10 3
a 10 11 7
a 11 10 7
a 11 20 9
a 20 11 9
a 11 12 3
a 12 11 3
a 12 21 1
a 21 12 1
a 14 23 8
a 23 14 8
a 14 15 9
a 15 14 9
a 15 24 4
a 24 15 4
a 15 16 7
a 16 15 7
a 16 25 6
a 25 16 6
a 16 17 6
a 17 16 6
a 17 26 5
a 26 17 5
a 17 18 1
a 18 17 1
a 18 27 6
a 27 18 6
a 19 28 8
a 28 19 8
a 19 20 8
a 20 19 8
a 20 29 3
a 29 20 3
a 20 21 5
a 21 20 5
a 21 30 3
a 30 21 3
a 21 22 5
a 22 21 5
a 22 31 8
a 31 22 8
a 22 23 7
a 23 22 7
a 23 32 2
a 32 23 2
a 23 24 7
a 24 23 7
a 24 33 9
a 33 24 9
a 24 25 3
a 25 24 3
a 25 34 8
a 34 25 8
a 25 26 5
a 26 25 5
a 26 35 8
a 35 26 8
a 26 27 2
a 27 26 2
a 27 36 4
a 36 27 4
a 28 37 6
a 37 28 6
a 28 29 3
a 29 28 3
a 29 38 9
a 38 29 9
a 29 30 9
a 30 29 9
a 30 39 2
a 39 30 2
a 30 31 7
a 31 30 7
a 31 40 3
a 40 31 3
a 31 32 4
a 32 31 4
a 32 41 6
a 41 32 6
a 32 33 7
a 33 32 7
a 33 42 8
a 42 33 8
a 33 34 4
a 34 33 4
a 34 43 7
a 43 34 7
a 34 35 7
a 35 34 7
a 35 44 4
a 44 35 4
a 35 36 6
a 36 35 6
a 36 45 9
a 45 36 9
a 37 46 8
a 46 37 8
a 37 38 1
a 38 37 1
a 38 39 10
a 39 38 10
a 39 48 2
a 48 39 2
a 39 40 9
a 40 39 9
a 40 49 9
a 49 40 9
a 40 41 4
a 41 40 4
a 41 50 10
a 50 41 10
a 41 42 2
a 42 41 2
a 42 51 6
a 51 42 6
a 42 43 9
a 43 42 9
a 43 52 10
a 52 43 10
a 43 44 8
a 44 43 8
a 44 53 6
a 53 44 6
a 44 45 6
a 45 44 6
a 45 54 8
a 54 45 8
a 46 55 2
a 55 46 2
a 48 57 4
a 57 48 4
a 48 49 9
a 49 48 9
a 49 58 9
a 58 49 9
a 49 50 6
a 50 49 6
a 50 59 8
a 59 50 8
a 50 51 6
a 51 50 6
a 51 60 4
a 60 51 4
a 51 52 10
a 52 51 10
a 52 61 3
a 61 52 3
a 52 53 4
a 53 52 4
a 53 62 7
a 62 53 7
a 53 54 9
a 54 53 9
a 54 63 5
a 63 54 5
a 55 64 1
a 64 55 1
a 55 56 2
a 56 55 2
a 56 65 5
a 65 56 5
a 56 57 5
a 57 56 5
a 57 66 3
a 66 57 3
a 57 58 9
a 58 57 9
a 58 59 8
a 59 58 8
a 59 68 3
a 68 59 3
a 59 60 1
a 60 59 1
a 60 69 2
a 69 60 2
a 60 61 10
a 61 60 10
a 61 70 8
a 70 61 8
a 61 62 7
a 62 61 7
a 62 71 2
a 71 62 2
a 62 63 5
a 63 62 5
a 63 72 5
a 72 63 5
a 64 73 7
a 73 64 7
a 64 65 2
a 65 64 2
a 65 74 3
a 74 65 3
a 65 66 8
a 66 65 8
a 66 75 8
a 75 66 8
a 68 77 7
a 77 68 7
a 68 69 1
a 69 68 1
a 69 78 1
a 78 69 1
a 69 70 2
a 70 69 2
a 70 79 5
a 79 70 5
a 70 71 8
a 71 70 8
a 71 80 3
a 80 71 3
a 71 72 10
a 72 71 10
a 72 81 2
a 81 72 2
a 73 74 10
a 74 73 10
a 74 75 5
a 75 74 5
a 75 76 2
a 76 75 2
a 76 77 3
a 77 76 3
a 77 78 3
a 78 77 3
a 78 79 5
a 79 78 5
a 79 80 4
a 80 79 4
a 80 81 4
a 81 80 4
